14° run output:
{
    "Function": "kroB400.tsp",
    "Problem dimension": [
        24,
        355,
        33,
        317,
        266,
        219,
        79,
        324,
        269,
        218,
        92,
        96,
        352,
        86,
        360,
        10,
        357,
        3,
        34,
        164,
        394,
        336,
        28,
        174,
        17,
        119,
        216,
        255,
        39,
        327,
        190,
        261,
        397,
        292,
        377,
        229,
        151,
        19,
        51,
        280,
        382,
        1,
        56,
        93,
        142,
        316,
        108,
        236,
        16,
        315,
        270,
        47,
        206,
        41,
        343,
        215,
        222,
        136,
        35,
        152,
        124,
        105,
        53,
        186,
        358,
        303,
        325,
        131,
        381,
        197,
        354,
        313,
        224,
        90,
        363,
        29,
        87,
        149,
        376,
        148,
        193,
        308,
        84,
        281,
        232,
        191,
        230,
        166,
        121,
        160,
        116,
        52,
        231,
        399,
        94,
        334,
        239,
        212,
        288,
        115,
        268,
        80,
        263,
        341,
        182,
        248,
        181,
        129,
        13,
        260,
        335,
        76,
        380,
        30,
        147,
        359,
        102,
        95,
        375,
        289,
        15,
        276,
        257,
        332,
        390,
        258,
        282,
        135,
        398,
        366,
        234,
        339,
        321,
        318,
        204,
        379,
        117,
        50,
        111,
        127,
        283,
        323,
        311,
        246,
        22,
        176,
        213,
        361,
        291,
        267,
        367,
        103,
        346,
        299,
        200,
        82,
        167,
        180,
        64,
        172,
        386,
        153,
        294,
        227,
        340,
        25,
        61,
        196,
        211,
        173,
        175,
        132,
        320,
        314,
        155,
        302,
        88,
        214,
        330,
        26,
        89,
        67,
        368,
        38,
        178,
        187,
        384,
        286,
        349,
        184,
        113,
        156,
        253,
        177,
        83,
        247,
        365,
        391,
        278,
        273,
        163,
        322,
        58,
        75,
        221,
        78,
        165,
        389,
        170,
        81,
        274,
        285,
        217,
        310,
        305,
        372,
        369,
        195,
        185,
        54,
        297,
        85,
        99,
        252,
        59,
        42,
        209,
        364,
        110,
        137,
        233,
        146,
        395,
        11,
        251,
        298,
        157,
        237,
        396,
        150,
        43,
        40,
        301,
        6,
        312,
        4,
        183,
        378,
        133,
        244,
        275,
        72,
        141,
        249,
        388,
        171,
        106,
        326,
        114,
        57,
        241,
        73,
        202,
        5,
        370,
        12,
        125,
        264,
        161,
        143,
        66,
        123,
        362,
        333,
        18,
        228,
        23,
        240,
        351,
        65,
        262,
        14,
        194,
        201,
        304,
        338,
        393,
        60,
        162,
        112,
        126,
        348,
        97,
        45,
        309,
        387,
        342,
        329,
        189,
        31,
        107,
        238,
        32,
        55,
        9,
        256,
        307,
        120,
        226,
        101,
        159,
        48,
        169,
        91,
        265,
        109,
        100,
        277,
        128,
        207,
        392,
        199,
        371,
        373,
        210,
        250,
        287,
        8,
        70,
        20,
        300,
        259,
        245,
        198,
        7,
        74,
        46,
        243,
        279,
        154,
        192,
        205,
        63,
        36,
        356,
        118,
        385,
        296,
        104,
        77,
        44,
        203,
        350,
        293,
        2,
        337,
        271,
        37,
        347,
        68,
        188,
        306,
        331,
        62,
        284,
        328,
        49,
        344,
        235,
        0,
        71,
        140,
        21,
        139,
        295,
        345,
        272,
        254,
        69,
        220,
        223,
        168,
        138,
        122,
        179,
        144,
        130,
        319,
        290,
        353,
        383,
        145,
        225,
        134,
        242,
        158,
        374,
        27,
        98,
        208
    ],
    "Global Optimum": 0,
    "Algorithm": "Genetic algorithm",
    "Parameters": {
        "population": 30,
        "offspring": 30,
        "mutation probability": 0.0025,
        "crossover probability": 0.9
    },
    "Fitness": 388617,
    "Solution": [
        24,
        355,
        33,
        317,
        266,
        219,
        79,
        324,
        269,
        218,
        92,
        96,
        352,
        86,
        360,
        10,
        357,
        3,
        34,
        164,
        394,
        336,
        28,
        174,
        17,
        119,
        216,
        255,
        39,
        327,
        190,
        261,
        397,
        292,
        377,
        229,
        151,
        19,
        51,
        280,
        382,
        1,
        56,
        93,
        142,
        316,
        108,
        236,
        16,
        315,
        270,
        47,
        206,
        41,
        343,
        215,
        222,
        136,
        35,
        152,
        124,
        105,
        53,
        186,
        358,
        303,
        325,
        131,
        381,
        197,
        354,
        313,
        224,
        90,
        363,
        29,
        87,
        149,
        376,
        148,
        193,
        308,
        84,
        281,
        232,
        191,
        230,
        166,
        121,
        160,
        116,
        52,
        231,
        399,
        94,
        334,
        239,
        212,
        288,
        115,
        268,
        80,
        263,
        341,
        182,
        248,
        181,
        129,
        13,
        260,
        335,
        76,
        380,
        30,
        147,
        359,
        102,
        95,
        375,
        289,
        15,
        276,
        257,
        332,
        390,
        258,
        282,
        135,
        398,
        366,
        234,
        339,
        321,
        318,
        204,
        379,
        117,
        50,
        111,
        127,
        283,
        323,
        311,
        246,
        22,
        176,
        213,
        361,
        291,
        267,
        367,
        103,
        346,
        299,
        200,
        82,
        167,
        180,
        64,
        172,
        386,
        153,
        294,
        227,
        340,
        25,
        61,
        196,
        211,
        173,
        175,
        132,
        320,
        314,
        155,
        302,
        88,
        214,
        330,
        26,
        89,
        67,
        368,
        38,
        178,
        187,
        384,
        286,
        349,
        184,
        113,
        156,
        253,
        177,
        83,
        247,
        365,
        391,
        278,
        273,
        163,
        322,
        58,
        75,
        221,
        78,
        165,
        389,
        170,
        81,
        274,
        285,
        217,
        310,
        305,
        372,
        369,
        195,
        185,
        54,
        297,
        85,
        99,
        252,
        59,
        42,
        209,
        364,
        110,
        137,
        233,
        146,
        395,
        11,
        251,
        298,
        157,
        237,
        396,
        150,
        43,
        40,
        301,
        6,
        312,
        4,
        183,
        378,
        133,
        244,
        275,
        72,
        141,
        249,
        388,
        171,
        106,
        326,
        114,
        57,
        241,
        73,
        202,
        5,
        370,
        12,
        125,
        264,
        161,
        143,
        66,
        123,
        362,
        333,
        18,
        228,
        23,
        240,
        351,
        65,
        262,
        14,
        194,
        201,
        304,
        338,
        393,
        60,
        162,
        112,
        126,
        348,
        97,
        45,
        309,
        387,
        342,
        329,
        189,
        31,
        107,
        238,
        32,
        55,
        9,
        256,
        307,
        120,
        226,
        101,
        159,
        48,
        169,
        91,
        265,
        109,
        100,
        277,
        128,
        207,
        392,
        199,
        371,
        373,
        210,
        250,
        287,
        8,
        70,
        20,
        300,
        259,
        245,
        198,
        7,
        74,
        46,
        243,
        279,
        154,
        192,
        205,
        63,
        36,
        356,
        118,
        385,
        296,
        104,
        77,
        44,
        203,
        350,
        293,
        2,
        337,
        271,
        37,
        347,
        68,
        188,
        306,
        331,
        62,
        284,
        328,
        49,
        344,
        235,
        0,
        71,
        140,
        21,
        139,
        295,
        345,
        272,
        254,
        69,
        220,
        223,
        168,
        138,
        122,
        179,
        144,
        130,
        319,
        290,
        353,
        383,
        145,
        225,
        134,
        242,
        158,
        374,
        27,
        98,
        208
    ],
    "Nb of functions evaluations": 400020,
    "Computational time in seconds": 973.4953098297119,
    "Stopping criterion in evaluations": 400000
}